c turning on binary mode checking
c parsing input formula with 202048 variables and 780985 clauses
c finished parsing, read 18983505 bytes from proof file
c detected empty clause; start verification via backward checking
c 22372 of 780985 clauses in core                            
c 35224 of 491645 lemmas in core using 371221 resolution steps
c 0 RAT lemmas in core; 3826 redundant literals in core lemmas
s VERIFIED
c verification time: 2.825 seconds
